(declare-const UF_IA_1_0  Real )
(assert 
(forall ((UF_iy_6_0 Real)
         (UF_iy_6_1 Real)
         (UF_iy_6_2 Real)
         (UF_iy_6_3 Real)
         (UF_iy_6_4 Real)
         (UF_iy_6_5 Real)
         (UF_k_5_0 Real)
         (UF_k_5_1 Real)
         (UF_k_5_2 Real)
         (UF_RNMX_2_0 Real)
         (UF_AM_2_0 Real)
         (UF_idum_6_0 Real)
         (UF_idum_6_1 Real)
         (UF_idum_6_2 Real)
         (UF_idum_6_3 Real)
         (UF_idum_6_4 Real)
         (UF_idum_6_5 Real)
         (UF_iy_4_0 Real)
         (UF_iy_4_1 Real)
         (UF_iv0_4_0 Real)
         (UF_iv0_4_1 Real)
         (UF_idum_4_0 Real)
         (UF_idum_4_1 Real)
         (UF_k_4_0 Real)
         (UF_k_4_1 Real)
         (UF_j_4_0 Real)
         (UF_idum_3_0 Real)
         (UF_j_2_0 Real)
         (UF_iy_2_0 Real)
         (UF_NTAB_1_0 Real)
         (UF_IR_1_0 Real)
         (UF_IQ_1_0 Real)
         (UF_IM_1_0 Real)
         (Ret Real)
         (idum Real))
  (let ((a!1 (to_real (div (to_int (- UF_IM_1_0 1.0)) (to_int UF_NTAB_1_0))))
        (a!6 (* (/ 524288.0 78125.0) (to_real (^ 10 (* (- 1) 7))))))
  (let ((a!2 (and (< (* UF_AM_2_0 UF_iy_6_5) (+ a!1 1.0)) (< (- 0.0 idum) 1.0)))
        (a!3 (and (> (* UF_AM_2_0 UF_iy_6_5) (+ a!1 1.0)) (< (- 0.0 idum) 1.0)))
        (a!4 (and (= (+ a!1 1.0) (* UF_AM_2_0 UF_iy_6_5)) (< (- 0.0 idum) 1.0)))
        (a!7 (and (< (* UF_AM_2_0 UF_iy_6_1) a!6) (< (- 0.0 idum) 1.0))))
  (let ((a!5 (or (and a!2
                      (< idum 0.0)
                      (not (= UF_NTAB_1_0 0.0))
                      (= Ret (* UF_AM_2_0 UF_iy_6_5)))
                 (and a!3
                      (< idum 0.0)
                      (not (= UF_NTAB_1_0 0.0))
                      (= Ret UF_RNMX_2_0))
                 (and (< (* UF_AM_2_0 UF_iy_6_2) (+ a!1 1.0))
                      (= 1.0 (- 0.0 idum))
                      (< idum 0.0)
                      (not (= UF_NTAB_1_0 0.0))
                      (= Ret (* UF_AM_2_0 UF_iy_6_2)))
                 (and (= (+ a!1 1.0) (* UF_AM_2_0 UF_iy_6_2))
                      (= 1.0 (- 0.0 idum))
                      (< idum 0.0)
                      (not (= UF_NTAB_1_0 0.0))
                      (= Ret (* UF_AM_2_0 UF_iy_6_2)))
                 (and (< (* UF_AM_2_0 UF_iy_6_2) (+ a!1 1.0))
                      (> (- 0.0 idum) 1.0)
                      (< idum 0.0)
                      (not (= UF_NTAB_1_0 0.0))
                      (= Ret (* UF_AM_2_0 UF_iy_6_2)))
                 (and (= (+ a!1 1.0) (* UF_AM_2_0 UF_iy_6_2))
                      (> (- 0.0 idum) 1.0)
                      (< idum 0.0)
                      (not (= UF_NTAB_1_0 0.0))
                      (= Ret (* UF_AM_2_0 UF_iy_6_2)))
                 (and (> (* UF_AM_2_0 UF_iy_6_2) (+ a!1 1.0))
                      (> (- 0.0 idum) 1.0)
                      (< idum 0.0)
                      (not (= UF_NTAB_1_0 0.0))
                      (= Ret UF_RNMX_2_0))
                 (and a!2
                      (= 0.0 idum)
                      (not (= UF_NTAB_1_0 0.0))
                      (= Ret (* UF_AM_2_0 UF_iy_6_5)))
                 (and a!4
                      (= 0.0 idum)
                      (not (= UF_NTAB_1_0 0.0))
                      (= Ret (* UF_AM_2_0 UF_iy_6_5)))
                 (and a!3
                      (= 0.0 idum)
                      (not (= UF_NTAB_1_0 0.0))
                      (= Ret UF_RNMX_2_0))
                 (and (< (* UF_AM_2_0 UF_iy_6_4) (+ a!1 1.0))
                      (< UF_iy_2_0 0.0)
                      (> idum 0.0)
                      (not (= UF_NTAB_1_0 0.0))
                      (= Ret (* UF_AM_2_0 UF_iy_6_4)))
                 (and (= (+ a!1 1.0) (* UF_AM_2_0 UF_iy_6_4))
                      (< UF_iy_2_0 0.0)
                      (> idum 0.0)
                      (not (= UF_NTAB_1_0 0.0))
                      (= Ret (* UF_AM_2_0 UF_iy_6_4)))
                 (and (> (* UF_AM_2_0 UF_iy_6_4) (+ a!1 1.0))
                      (< UF_iy_2_0 0.0)
                      (> idum 0.0)
                      (not (= UF_NTAB_1_0 0.0))
                      (= Ret UF_RNMX_2_0))
                 (and a!2
                      (= 0.0 UF_iy_2_0)
                      (> idum 0.0)
                      (not (= UF_NTAB_1_0 0.0))
                      (= Ret (* UF_AM_2_0 UF_iy_6_5)))
                 (and a!4
                      (= 0.0 UF_iy_2_0)
                      (> idum 0.0)
                      (not (= UF_NTAB_1_0 0.0))
                      (= Ret (* UF_AM_2_0 UF_iy_6_5)))
                 (and a!3
                      (= 0.0 UF_iy_2_0)
                      (> idum 0.0)
                      (not (= UF_NTAB_1_0 0.0))
                      (= Ret UF_RNMX_2_0))
                 (and (< (* UF_AM_2_0 UF_iy_6_4) (+ a!1 1.0))
                      (> UF_iy_2_0 0.0)
                      (> idum 0.0)
                      (not (= UF_NTAB_1_0 0.0))
                      (= Ret (* UF_AM_2_0 UF_iy_6_4)))
                 (and (= (+ a!1 1.0) (* UF_AM_2_0 UF_iy_6_4))
                      (> UF_iy_2_0 0.0)
                      (> idum 0.0)
                      (not (= UF_NTAB_1_0 0.0))
                      (= Ret (* UF_AM_2_0 UF_iy_6_4)))
                 (and (> (* UF_AM_2_0 UF_iy_6_4) (+ a!1 1.0))
                      (> UF_iy_2_0 0.0)
                      (> idum 0.0)
                      (not (= UF_NTAB_1_0 0.0))
                      (= Ret UF_RNMX_2_0))))
        (a!8 (or (and a!7 (< idum 0.0) (= Ret (* UF_AM_2_0 UF_iy_6_1)))
                 (and (= a!6 (* UF_AM_2_0 UF_iy_6_1))
                      (< (- 0.0 idum) 1.0)
                      (< idum 0.0)
                      (= Ret (* UF_AM_2_0 UF_iy_6_1)))
                 (and (< (* UF_AM_2_0 UF_iy_6_3) a!6)
                      (= 1.0 (- 0.0 idum))
                      (< idum 0.0)
                      (= Ret (* UF_AM_2_0 UF_iy_6_3)))
                 (and (= a!6 (* UF_AM_2_0 UF_iy_6_3))
                      (= 1.0 (- 0.0 idum))
                      (< idum 0.0)
                      (= Ret (* UF_AM_2_0 UF_iy_6_3)))
                 (and (< (* UF_AM_2_0 UF_iy_6_3) a!6)
                      (> (- 0.0 idum) 1.0)
                      (< idum 0.0)
                      (= Ret (* UF_AM_2_0 UF_iy_6_3)))
                 (and a!7 (= 0.0 idum) (= Ret (* UF_AM_2_0 UF_iy_6_1)))
                 (and (< (* UF_AM_2_0 UF_iy_6_0) a!6)
                      (< UF_iy_2_0 0.0)
                      (> idum 0.0)
                      (= Ret (* UF_AM_2_0 UF_iy_6_0)))
                 (and a!7
                      (= 0.0 UF_iy_2_0)
                      (> idum 0.0)
                      (= Ret (* UF_AM_2_0 UF_iy_6_1)))
                 (and (< (* UF_AM_2_0 UF_iy_6_0) a!6)
                      (> UF_iy_2_0 0.0)
                      (> idum 0.0)
                      (= Ret (* UF_AM_2_0 UF_iy_6_0))))))
    (= a!5 a!8)))))) 
(check-sat)